100
32
22
29
17
18
4
9
1
9
8
9
7
1
1
24
10
18
14
2
3
3
2
12
5
9
2
2
9
1
5
2
18
2
3
1
17
2
3
2
3
17
2
2
1
1
4
7
1
1
2
5
1
2
3
1
16
2
1
7
7
20
2
2
3
18
17
4
2
7
1
1
18
1
1
1
4
1
2
1
1
2
7
17
4
17
1
2
1
1
2
5
1
2
1
1
1
1
6
2
1
1